
<<< setup

Tried aggregator 1 time.
LP Presolve eliminated 95 rows and 71 columns.
Reduced LP has 1 rows, 9 columns, and 9 nonzeros.
Presolve time = 0.00 sec. (0.03 ticks)

Iteration log . . .
Iteration:     1   Dual objective     =          1166.172263
main returns 0

<<< main


<<< done

